(declare-const x0 Real)
(declare-const x1 Real)
(declare-const x2 Real)
(declare-const x3 Real)
(declare-const x4 Real)
(declare-const x5 Real)
(declare-const x6 Real)
(declare-const x7 Real)
(declare-const x8 Real)
(declare-const x9 Real)
(declare-const x10 Real)
(declare-const x11 Real)
(declare-const x12 Real)
(declare-const x13 Real)
(declare-const x14 Real)

(assert (<= (- 385.0) (+ (* (- 100.0) (^ x0 2.0)) (* (- 100.0) (^ x1 2.0)) (* (- 10.0) (^ x2 2.0)) (* (- 5.0) (^ x3 2.0)) (* (- 10.0) (^ x4 2.0)) (* (- 25.0) (^ x7 2.0)) (* (- 10.0) (^ x9 2.0)) (* (- 55.0) (^ x10 2.0)) (* (- 5.0) (^ x11 2.0)) (* (- 45.0) (^ x12 2.0)) (* (- 20.0) (^ x13 2.0)))))
(assert (<= (- 470.0) (+ (* (- 90.0) (^ x0 2.0)) (* (- 100.0) (^ x1 2.0)) (* (- 10.0) (^ x2 2.0)) (* (- 35.0) (^ x3 2.0)) (* (- 20.0) (^ x4 2.0)) (* (- 5.0) (^ x5 2.0)) (* (- 35.0) (^ x7 2.0)) (* (- 55.0) (^ x8 2.0)) (* (- 25.0) (^ x9 2.0)) (* (- 20.0) (^ x10 2.0)) (* (- 40.0) (^ x12 2.0)) (* (- 25.0) (^ x13 2.0)) (* (- 10.0) (^ x14 2.0)))))
(assert (<= (- 560.0) (+ (* (- 70.0) (^ x0 2.0)) (* (- 50.0) (^ x1 2.0)) (* (- 55.0) (^ x3 2.0)) (* (- 25.0) (^ x4 2.0)) (* (- 100.0) (^ x5 2.0)) (* (- 40.0) (^ x6 2.0)) (* (- 50.0) (^ x7 2.0)) (* (- 30.0) (^ x9 2.0)) (* (- 60.0) (^ x10 2.0)) (* (- 10.0) (^ x11 2.0)) (* (- 30.0) (^ x12 2.0)) (* (- 40.0) (^ x14 2.0)))))
(assert (<= (- 565.0) (+ (* (- 50.0) (^ x0 2.0)) (* (- 65.0) (^ x3 2.0)) (* (- 35.0) (^ x4 2.0)) (* (- 100.0) (^ x5 2.0)) (* (- 35.0) (^ x6 2.0)) (* (- 60.0) (^ x7 2.0)) (* (- 15.0) (^ x9 2.0)) (* (- 75.0) (^ x11 2.0)) (* (- 35.0) (^ x12 2.0)) (* (- 30.0) (^ x13 2.0)) (* (- 65.0) (^ x14 2.0)))))
(assert (<= (- 645.0) (+ (* (- 50.0) (^ x0 2.0)) (* (- 10.0) (^ x1 2.0)) (* (- 70.0) (^ x2 2.0)) (* (- 60.0) (^ x3 2.0)) (* (- 45.0) (^ x4 2.0)) (* (- 45.0) (^ x5 2.0)) (* (- 35.0) (^ x7 2.0)) (* (- 65.0) (^ x8 2.0)) (* (- 5.0) (^ x9 2.0)) (* (- 75.0) (^ x10 2.0)) (* (- 100.0) (^ x11 2.0)) (* (- 75.0) (^ x12 2.0)) (* (- 10.0) (^ x13 2.0)))))
(assert (<= (- 430.0) (+ (* (- 40.0) (^ x0 2.0)) (* (- 50.0) (^ x2 2.0)) (* (- 95.0) (^ x3 2.0)) (* (- 50.0) (^ x4 2.0)) (* (- 35.0) (^ x5 2.0)) (* (- 10.0) (^ x6 2.0)) (* (- 60.0) (^ x7 2.0)) (* (- 45.0) (^ x9 2.0)) (* (- 15.0) (^ x10 2.0)) (* (- 20.0) (^ x11 2.0)) (* (- 5.0) (^ x13 2.0)) (* (- 5.0) (^ x14 2.0)))))
(assert (<= (- 485.0) (+ (* (- 30.0) (^ x0 2.0)) (* (- 60.0) (^ x1 2.0)) (* (- 30.0) (^ x2 2.0)) (* (- 90.0) (^ x3 2.0)) (* (- 30.0) (^ x5 2.0)) (* (- 5.0) (^ x6 2.0)) (* (- 25.0) (^ x7 2.0)) (* (- 70.0) (^ x9 2.0)) (* (- 20.0) (^ x10 2.0)) (* (- 25.0) (^ x11 2.0)) (* (- 70.0) (^ x12 2.0)) (* (- 15.0) (^ x13 2.0)) (* (- 15.0) (^ x14 2.0)))))
(assert (<= (- 455.0) (+ (* (- 20.0) (^ x0 2.0)) (* (- 30.0) (^ x1 2.0)) (* (- 40.0) (^ x2 2.0)) (* (- 25.0) (^ x3 2.0)) (* (- 40.0) (^ x4 2.0)) (* (- 25.0) (^ x5 2.0)) (* (- 15.0) (^ x6 2.0)) (* (- 10.0) (^ x7 2.0)) (* (- 80.0) (^ x8 2.0)) (* (- 20.0) (^ x9 2.0)) (* (- 30.0) (^ x10 2.0)) (* (- 30.0) (^ x11 2.0)) (* (- 5.0) (^ x12 2.0)) (* (- 65.0) (^ x13 2.0)) (* (- 20.0) (^ x14 2.0)))))
(assert (<= (- 390.0) (+ (* (- 10.0) (^ x0 2.0)) (* (- 70.0) (^ x1 2.0)) (* (- 10.0) (^ x2 2.0)) (* (- 35.0) (^ x3 2.0)) (* (- 25.0) (^ x4 2.0)) (* (- 65.0) (^ x5 2.0)) (* (- 30.0) (^ x7 2.0)) (* (- 25.0) (^ x10 2.0)) (* (- 15.0) (^ x12 2.0)) (* (- 50.0) (^ x13 2.0)) (* (- 55.0) (^ x14 2.0)))))
(assert (<= (- 460.0) (+ (* (- 5.0) (^ x0 2.0)) (* (- 10.0) (^ x1 2.0)) (* (- 100.0) (^ x2 2.0)) (* (- 5.0) (^ x3 2.0)) (* (- 20.0) (^ x4 2.0)) (* (- 5.0) (^ x5 2.0)) (* (- 10.0) (^ x6 2.0)) (* (- 35.0) (^ x7 2.0)) (* (- 95.0) (^ x8 2.0)) (* (- 70.0) (^ x9 2.0)) (* (- 20.0) (^ x10 2.0)) (* (- 10.0) (^ x11 2.0)) (* (- 35.0) (^ x12 2.0)) (* (- 10.0) (^ x13 2.0)) (* (- 30.0) (^ x14 2.0)))))

(minimize
	(+ (* (- 20.0) x0) (* (- 40.0) x1) (* (- 400.0) x2) (* (- 20.0) x3) (* (- 80.0) x4) (* (- 20.0) x5) (* (- 40.0) x6) (* (- 140.0) x7) (* (- 380.0) x8) (* (- 280.0) x9) (* (- 80.0) x10) (* (- 40.0) x11) (* (- 140.0) x12) (* (- 40.0) x13) (* (- 120.0) x14))
)
(check-sat)
(get-objectives)
(exit)

